************************************************************************
file with basedata            : mm24_.bas
initial value random generator: 953051188
************************************************************************
projects                      :  1
jobs (incl. supersource/sink ):  12
horizon                       :  75
RESOURCES
  - renewable                 :  2   R
  - nonrenewable              :  2   N
  - doubly constrained        :  0   D
************************************************************************
PROJECT INFORMATION:
pronr.  #jobs rel.date duedate tardcost  MPM-Time
    1     10      0       14        9       14
************************************************************************
PRECEDENCE RELATIONS:
jobnr.    #modes  #successors   successors
   1        1          3           2   3   4
   2        3          1           6
   3        3          2           6   8
   4        3          3           5   6  11
   5        3          2           7   9
   6        3          2           9  10
   7        3          1          10
   8        3          1           9
   9        3          1          12
  10        3          1          12
  11        3          1          12
  12        1          0        
************************************************************************
REQUESTS/DURATIONS:
jobnr. mode duration  R 1  R 2  N 1  N 2
------------------------------------------------------------------------
  1      1     0       0    0    0    0
  2      1     6       7    0    5    7
         2     9       3    0    3    6
         3    10       0    9    2    4
  3      1     1       0    7    7    5
         2     3       0    7    6    5
         3     5       0    4    6    3
  4      1     6       0    1   10    8
         2     6       0    5    9    7
         3     9       9    0    3    7
  5      1     5       0    8    4    5
         2     9       9    0    3    4
         3    10       8    0    3    3
  6      1     3       5    0    9    3
         2     5       4    0    6    3
         3     7       4    0    3    1
  7      1     1       0    5    8    9
         2     3       0    5    6    6
         3     9       4    0    5    4
  8      1     2       8    0    4    7
         2     3       0    4    4    7
         3     5       0    3    4    6
  9      1     2       0    6    2   10
         2     3       0    5    2    8
         3     7       0    3    1    7
 10      1     2       6    0    7    2
         2     5       4    0    6    1
         3     6       0    7    5    1
 11      1     1      10    0    6    8
         2     6       0    8    4    8
         3     7       0    4    2    7
 12      1     0       0    0    0    0
************************************************************************
RESOURCEAVAILABILITIES:
  R 1  R 2  N 1  N 2
   18   19   62   64
************************************************************************
MAXIMAL LAGS:
from  to  type  delay
    1   12   ES      0
    1    2   ES      0
    2   12   ES      0
    1    3   ES      0
    3   12   ES      0
    1    4   ES      0
    4   12   ES      0
    1    5   ES      0
    5   12   ES      0
    1    6   ES      0
    6   12   ES      0
    1    7   ES      0
    7   12   ES      0
    1    8   ES      0
    8   12   ES      0
    1    9   ES      0
    9   12   ES      0
    1   10   ES      0
   10   12   ES      0
    1   11   ES      0
   11   12   ES      0
    1   12   ES      0
    2    6   SS     -2
    2    6   SE      5
    2    6   ES      7
    2    6   EE     10
    3    6   SS      9
    3    6   SE     10
    3    6   ES    -11
    3    6   EE     -7
    3    8   SS      0
    3    8   SE      8
    3    8   ES    -12
    3    8   EE    -10
    4    5   SS     -8
    4    5   SE      3
    4    5   ES      7
    4    5   EE      1
    4    6   SS    -10
    4    6   SE    -10
    4    6   ES     -4
    4    6   EE     -5
    4   11   SS     -1
    4   11   SE    -10
    4   11   ES      7
    4   11   EE    -11
    5    7   SS     11
    5    7   SE      0
    7    5   SE      0
    5    7   ES      0
    5    7   EE      7
    5    9   SS      8
    5    9   SE      4
    5    9   ES     -3
    5    9   EE     10
    6    9   SS      7
    6    9   SE    -11
    6    9   ES     12
    6    9   EE     -7
    6   10   SS      8
    6   10   SE      3
    6   10   ES      2
    6   10   EE    -12
    7   10   SS     -6
    7   10   SE      9
    7   10   ES      4
    7   10   EE     -3
    8    9   SS     -6
    8    9   SE    -11
    8    9   ES      7
    8    9   EE      4
************************************************************************
